# 21107
param k := 5;
param n := 60;
param s := 2;
set E :=  (0,21) (0,35) (1,12) (1,31) (1,38) (2,10) (2,13) (2,16) (2,57) (3,11) (3,19) (3,46) (3,55) (3,59) (4,5) (4,41) (4,49) (5,18) (6,18) (6,20) (6,21) (6,46) (7,42) (8,32) (8,41) (8,42) (8,48) (8,54) (9,10) (9,47) (9,48) (10,51) (11,26) (11,30) (11,58) (12,15) (12,24) (12,29) (12,50) (14,56) (16,25) (16,27) (17,36) (19,38) (19,48) (20,22) (21,32) (22,49) (23,32) (23,43) (24,36) (27,54) (28,29) (29,31) (29,39) (29,40) (32,39) (33,43) (34,40) (35,57) (36,41) (36,45) (36,56) (37,56) (40,59) (42,45) (43,58) (44,54) (44,57) (46,53) (48,52) (51,53) (51,57) (52,54) (53,55);